33D32945 STP File, STP Format Version 1.0

SECTION Comment
Name "wrp3-19-5s"
Creator "Bernd Zey"
Problem "Stochastic Steiner Tree Problem"
# Stochastic Steiner tree problem instance, base file: wrp3-19.stp
# weight-scaling on, factor=0.010000 (for "big-M" edges)
# parameters:
# distribution=equal
# selectRootRandomly=0
# probabilityTerminal=33
# probabilityNonTerminal=5
# 2nd stage edge-costs in [1.1000c_e, 1.3000c_e]
END

SECTION Graph
Nodes 189
Edges 353
Scenarios 5
Root 184
E 1 168 1
E 1 169 9
E 2 170 9
E 3 168 9
E 3 169 1
E 4 59 55
E 4 170 1
E 5 150 41
E 5 160 1
E 5 162 1
E 6 165 2
E 6 167 3
E 7 158 21
E 7 161 5
E 7 163 1
E 7 164 7
E 8 151 47
E 8 163 3
E 8 166 7
E 9 153 1
E 9 154 1
E 9 156 5
E 9 161 28
E 10 155 7
E 10 159 1
E 11 133 6
E 11 148 12
E 12 132 18
E 12 148 1
E 12 152 23
E 13 126 3
E 13 130 1
E 13 131 1
E 14 16 1
E 14 131 12
E 14 149 21
E 14 158 47
E 15 16 12
E 15 17 1
E 15 130 1
E 15 131 1
E 16 18 1
E 16 157 47
E 17 18 12
E 17 120 5
E 17 128 1
E 18 133 5
E 19 99 5
E 19 107 12
E 20 107 1
E 20 108 2
E 21 23 10
E 21 32 1
E 21 60 3
E 22 24 10
E 22 61 2
E 23 25 1
E 23 62 3
E 23 143 1
E 24 26 1
E 24 63 2
E 25 64 3
E 25 118 22
E 25 142 1
E 26 65 2
E 26 147 14
E 26 151 27
E 27 30 9
E 27 88 21
E 27 97 1
E 27 127 22
E 28 30 6
E 28 109 1
E 28 113 2
E 28 140 22
E 29 30 1
E 29 97 9
E 29 101 2
E 29 109 6
E 30 134 22
E 31 66 9
E 31 105 21
E 31 129 10
E 32 67 2
E 32 143 10
E 33 34 2
E 33 39 1
E 33 77 1
E 33 83 9
E 34 40 1
E 34 81 1
E 34 85 9
E 35 36 2
E 35 83 6
E 35 96 21
E 36 85 6
E 36 88 1
E 36 97 21
E 37 77 9
E 37 83 1
E 37 94 27
E 38 81 9
E 38 85 1
E 38 88 6
E 38 100 33
E 39 40 2
E 39 71 9
E 39 76 1
E 40 72 9
E 40 79 1
E 41 71 1
E 41 76 9
E 42 72 1
E 42 79 9
E 42 92 33
E 43 44 2
E 43 51 1
E 43 84 1
E 43 89 9
E 44 52 1
E 44 87 1
E 44 90 9
E 45 46 2
E 45 89 6
E 45 91 1
E 46 90 6
E 47 84 9
E 47 89 1
E 47 91 6
E 48 87 9
E 48 90 1
E 49 50 2
E 49 55 5
E 49 74 1
E 49 78 6
E 50 56 5
E 50 75 1
E 50 80 6
E 51 52 2
E 51 78 9
E 51 82 1
E 52 80 9
E 52 86 1
E 53 74 6
E 53 78 1
E 53 82 9
E 54 75 6
E 54 80 1
E 54 86 9
E 55 56 2
E 55 68 6
E 55 70 1
E 56 69 6
E 56 73 1
E 57 68 1
E 57 70 6
E 58 69 1
E 58 73 6
E 60 61 12
E 60 62 10
E 61 63 10
E 62 63 12
E 62 64 1
E 63 65 1
E 64 65 12
E 64 125 22
E 65 145 14
E 66 67 6
E 66 135 10
E 67 141 10
E 68 69 2
E 70 74 5
E 71 72 2
E 73 75 5
E 76 77 1
E 78 80 2
E 79 81 1
E 79 93 33
E 81 95 33
E 82 84 1
E 83 85 2
E 86 87 1
E 88 105 33
E 89 90 2
E 91 92 21
E 92 93 9
E 93 95 1
E 94 96 1
E 94 98 9
E 95 100 9
E 96 97 2
E 96 101 9
E 98 101 1
E 98 104 6
E 99 102 1
E 99 115 12
E 100 105 6
E 101 106 6
E 102 103 1
E 102 119 12
E 103 104 16
E 103 121 12
E 103 123 13
E 104 106 1
E 106 109 2
E 107 110 2
E 107 115 5
E 108 110 1
E 108 112 3
E 109 111 2
E 110 116 3
E 110 122 5
E 111 113 1
E 111 114 1
E 112 116 1
E 112 117 1
E 113 118 1
E 113 142 22
E 114 118 1
E 114 123 3
E 115 119 1
E 115 122 2
E 116 120 1
E 116 128 5
E 117 120 1
E 117 132 12
E 118 125 3
E 119 121 1
E 119 124 2
E 120 133 12
E 121 126 2
E 121 136 13
E 122 124 1
E 122 128 3
E 123 125 1
E 123 136 12
E 124 126 1
E 124 130 3
E 125 137 12
E 126 138 13
E 127 129 1
E 127 134 9
E 128 130 1
E 129 135 9
E 132 133 1
E 134 135 1
E 134 140 6
E 135 141 6
E 136 137 1
E 136 138 2
E 137 139 2
E 137 144 7
E 138 139 1
E 139 146 7
E 140 141 1
E 140 142 2
E 141 143 2
E 142 143 1
E 144 145 1
E 144 146 2
E 145 147 2
E 146 147 1
E 146 149 16
E 147 150 16
E 148 153 23
E 149 150 1
E 149 160 41
E 150 151 3
E 152 153 1
E 152 154 1
E 153 160 28
E 154 155 5
E 155 156 1
E 156 157 6
E 156 159 7
E 157 158 1
E 159 164 28
E 160 161 1
E 161 162 1
E 162 163 5
E 163 165 7
E 164 165 1
E 165 166 3
E 166 167 2
E 167 168 33
E 169 170 2
E 1 171 1000
E 2 171 1000
E 3 171 1000
E 4 171 1000
E 5 172 1000
E 6 172 1000
E 7 172 1000
E 8 172 1000
E 9 173 1000
E 10 173 1000
E 11 174 1000
E 12 174 1000
E 13 175 1000
E 14 175 1000
E 15 176 1000
E 16 176 1000
E 17 177 1000
E 18 177 1000
E 19 178 1000
E 20 178 1000
E 21 179 1000
E 22 179 1000
E 23 180 1000
E 24 180 1000
E 25 181 1000
E 26 181 1000
E 27 182 1000
E 28 182 1000
E 29 182 1000
E 30 182 1000
E 31 183 1000
E 32 183 1000
E 33 184 1000
E 34 184 1000
E 35 184 1000
E 36 184 1000
E 37 184 1000
E 38 184 1000
E 39 185 1000
E 40 185 1000
E 41 185 1000
E 42 185 1000
E 43 186 1000
E 44 186 1000
E 45 186 1000
E 46 186 1000
E 47 186 1000
E 48 186 1000
E 49 187 1000
E 50 187 1000
E 51 187 1000
E 52 187 1000
E 53 187 1000
E 54 187 1000
E 55 188 1000
E 56 188 1000
E 57 188 1000
E 58 188 1000
E 59 189 1000
E 60 179 1000
E 61 179 1000
E 62 180 1000
E 63 180 1000
E 64 181 1000
E 65 181 1000
E 66 183 1000
E 67 183 1000
END

SECTION StochasticProbabilities
SP 0.31580 0.19300 0.15790 0.14040 0.19290
END

SECTION StochasticWeights
SE 2 2 2 2 2 
SE 11 10 10 10 11 
SE 11 10 10 10 11 
SE 10 11 11 10 10 
SE 2 2 2 2 2 
SE 67 71 70 66 64 
SE 2 2 2 2 2 
SE 53 46 53 47 49 
SE 2 2 2 2 2 
SE 2 2 2 2 2 
SE 3 3 3 3 3 
SE 4 4 4 4 4 
SE 26 27 26 26 27 
SE 6 6 6 6 6 
SE 2 2 2 2 2 
SE 8 8 9 8 8 
SE 57 60 52 56 59 
SE 4 4 4 4 4 
SE 9 8 8 8 8 
SE 2 2 2 2 2 
SE 2 2 2 2 2 
SE 6 6 6 6 6 
SE 35 36 34 36 34 
SE 8 8 8 8 9 
SE 2 2 2 2 2 
SE 7 7 7 7 7 
SE 15 15 14 15 15 
SE 20 21 22 21 22 
SE 2 2 2 2 2 
SE 26 29 27 27 27 
SE 4 4 4 4 4 
SE 2 2 2 2 2 
SE 2 2 2 2 2 
SE 2 2 2 2 2 
SE 14 14 15 15 14 
SE 27 26 26 26 24 
SE 52 52 52 61 58 
SE 14 14 14 14 14 
SE 2 2 2 2 2 
SE 2 2 2 2 2 
SE 2 2 2 2 2 
SE 2 2 2 2 2 
SE 52 52 52 61 57 
SE 14 14 14 15 15 
SE 6 6 6 6 6 
SE 2 2 2 2 2 
SE 6 6 6 6 6 
SE 6 6 6 6 6 
SE 15 14 14 14 14 
SE 2 2 2 2 2 
SE 3 3 3 3 3 
SE 13 12 13 12 12 
SE 2 2 2 2 2 
SE 4 4 4 4 4 
SE 11 13 13 13 11 
SE 3 3 3 3 3 
SE 2 2 2 2 2 
SE 4 4 4 4 4 
SE 2 2 2 2 2 
SE 2 2 2 2 2 
SE 3 3 3 3 3 
SE 4 4 4 4 4 
SE 25 25 25 26 25 
SE 2 2 2 2 2 
SE 3 3 3 3 3 
SE 18 16 18 17 16 
SE 34 34 34 30 33 
SE 10 10 10 10 11 
SE 24 24 24 27 27 
SE 2 2 2 2 2 
SE 25 28 25 26 25 
SE 7 7 7 7 7 
SE 2 2 2 2 2 
SE 3 3 3 3 3 
SE 25 25 28 27 26 
SE 2 2 2 2 2 
SE 11 10 11 10 10 
SE 3 3 3 3 3 
SE 7 7 7 7 7 
SE 27 26 25 25 25 
SE 10 10 11 10 10 
SE 25 24 26 24 24 
SE 13 12 13 11 11 
SE 3 3 3 3 3 
SE 12 13 13 12 11 
SE 3 3 3 3 3 
SE 2 2 2 2 2 
SE 2 2 2 2 2 
SE 10 11 11 10 11 
SE 2 2 2 2 2 
SE 2 2 2 2 2 
SE 11 10 11 10 10 
SE 3 3 3 3 3 
SE 7 7 7 7 7 
SE 26 26 25 24 26 
SE 7 7 7 7 7 
SE 2 2 2 2 2 
SE 24 25 25 25 27 
SE 10 10 11 10 11 
SE 2 2 2 2 2 
SE 31 33 30 30 30 
SE 10 10 10 10 11 
SE 2 2 2 2 2 
SE 7 7 7 7 7 
SE 37 39 37 42 42 
SE 3 3 3 3 3 
SE 11 10 11 11 11 
SE 2 2 2 2 2 
SE 10 10 10 11 10 
SE 2 2 2 2 2 
SE 2 2 2 2 2 
SE 10 11 10 10 10 
SE 2 2 2 2 2 
SE 10 10 10 10 10 
SE 37 37 42 41 38 
SE 3 3 3 3 3 
SE 2 2 2 2 2 
SE 2 2 2 2 2 
SE 10 10 11 11 10 
SE 2 2 2 2 2 
SE 2 2 2 2 2 
SE 10 10 11 11 11 
SE 3 3 3 3 3 
SE 7 7 7 7 7 
SE 2 2 2 2 2 
SE 7 7 7 7 7 
SE 10 11 11 10 10 
SE 2 2 2 2 2 
SE 7 7 7 7 7 
SE 10 10 10 10 10 
SE 2 2 2 2 2 
SE 3 3 3 3 3 
SE 6 6 6 6 6 
SE 2 2 2 2 2 
SE 7 7 7 7 7 
SE 6 6 6 6 6 
SE 2 2 2 2 2 
SE 7 7 7 7 7 
SE 3 3 3 3 3 
SE 11 10 10 11 10 
SE 2 2 2 2 2 
SE 10 10 11 10 10 
SE 2 2 2 2 2 
SE 7 7 7 7 7 
SE 2 2 2 2 2 
SE 11 11 10 11 11 
SE 7 7 7 7 7 
SE 2 2 2 2 2 
SE 10 11 10 10 10 
SE 3 3 3 3 3 
SE 7 7 7 7 7 
SE 2 2 2 2 2 
SE 7 7 7 7 7 
SE 2 2 2 2 2 
SE 2 2 2 2 2 
SE 7 7 7 7 7 
SE 2 2 2 2 2 
SE 7 7 7 7 7 
SE 14 15 14 14 15 
SE 12 11 13 13 12 
SE 13 12 11 12 13 
SE 15 15 14 15 14 
SE 2 2 2 2 2 
SE 2 2 2 2 2 
SE 15 14 14 14 14 
SE 27 28 25 25 28 
SE 18 17 16 16 17 
SE 7 7 7 7 7 
SE 12 12 12 11 13 
SE 12 13 13 13 11 
SE 3 3 3 3 3 
SE 6 6 6 6 6 
SE 3 3 3 3 3 
SE 6 6 6 6 6 
SE 2 2 2 2 2 
SE 3 3 3 3 3 
SE 2 2 2 2 2 
SE 41 37 37 40 41 
SE 42 42 41 42 40 
SE 2 2 2 2 2 
SE 3 3 3 3 3 
SE 2 2 2 2 2 
SE 37 42 38 37 41 
SE 3 3 3 3 3 
SE 24 27 27 24 25 
SE 10 11 10 10 10 
SE 2 2 2 2 2 
SE 2 2 2 2 2 
SE 11 10 11 11 10 
SE 10 11 10 10 11 
SE 3 3 3 3 3 
SE 11 11 11 10 10 
SE 2 2 2 2 2 
SE 7 7 7 7 7 
SE 2 2 2 2 2 
SE 14 15 14 14 14 
SE 7 7 7 7 7 
SE 7 7 7 7 7 
SE 2 2 2 2 2 
SE 15 14 15 14 14 
SE 20 19 18 19 18 
SE 15 14 14 15 14 
SE 15 16 16 16 16 
SE 2 2 2 2 2 
SE 3 3 3 3 3 
SE 3 3 3 3 3 
SE 6 6 6 6 6 
SE 2 2 2 2 2 
SE 4 4 4 4 4 
SE 3 3 3 3 3 
SE 4 4 4 4 4 
SE 6 6 6 6 6 
SE 2 2 2 2 2 
SE 2 2 2 2 2 
SE 2 2 2 2 2 
SE 2 2 2 2 2 
SE 2 2 2 2 2 
SE 27 25 26 28 28 
SE 2 2 2 2 2 
SE 4 4 4 4 4 
SE 2 2 2 2 2 
SE 3 3 3 3 3 
SE 2 2 2 2 2 
SE 6 6 6 6 6 
SE 2 2 2 2 2 
SE 14 14 14 14 15 
SE 4 4 4 4 4 
SE 2 2 2 2 2 
SE 3 3 3 3 3 
SE 14 14 14 14 14 
SE 3 3 3 3 3 
SE 16 16 16 15 15 
SE 2 2 2 2 2 
SE 4 4 4 4 4 
SE 2 2 2 2 2 
SE 15 15 14 14 14 
SE 2 2 2 2 2 
SE 4 4 4 4 4 
SE 14 15 15 14 15 
SE 15 15 15 15 15 
SE 2 2 2 2 2 
SE 10 10 10 10 11 
SE 2 2 2 2 2 
SE 11 11 10 10 10 
SE 2 2 2 2 2 
SE 2 2 2 2 2 
SE 7 7 7 7 7 
SE 7 7 7 7 7 
SE 2 2 2 2 2 
SE 3 3 3 3 3 
SE 3 3 3 3 3 
SE 8 9 9 8 8 
SE 2 2 2 2 2 
SE 8 9 8 8 9 
SE 2 2 2 2 2 
SE 3 3 3 3 3 
SE 3 3 3 3 3 
SE 2 2 2 2 2 
SE 2 2 2 2 2 
SE 3 3 3 3 3 
SE 3 3 3 3 3 
SE 2 2 2 2 2 
SE 18 20 20 18 19 
SE 18 18 18 18 18 
SE 28 26 26 28 28 
SE 2 2 2 2 2 
SE 49 46 51 47 46 
SE 4 4 4 4 4 
SE 2 2 2 2 2 
SE 2 2 2 2 2 
SE 36 36 35 31 36 
SE 6 6 6 6 6 
SE 2 2 2 2 2 
SE 7 7 7 7 7 
SE 8 9 9 9 8 
SE 2 2 2 2 2 
SE 33 35 32 33 31 
SE 2 2 2 2 2 
SE 2 2 2 2 2 
SE 6 6 6 6 6 
SE 9 8 8 9 8 
SE 2 2 2 2 2 
SE 4 4 4 4 4 
SE 3 3 3 3 3 
SE 39 41 39 42 38 
SE 3 3 3 3 3 
SE 1290 1238 1134 1214 1123 
SE 1218 1178 1285 1154 1146 
SE 1116 1153 1294 1100 1102 
SE 1206 1259 1282 1246 1183 
SE 1176 1278 1186 1216 1209 
SE 1136 1139 1105 1110 1228 
SE 1294 1160 1194 1119 1209 
SE 1242 1277 1245 1207 1200 
SE 1162 1294 1144 1294 1255 
SE 1145 1126 1290 1179 1223 
SE 1235 1127 1250 1123 1167 
SE 1188 1182 1121 1266 1205 
SE 1297 1256 1261 1128 1168 
SE 1281 1125 1207 1103 1244 
SE 1185 1159 1156 1121 1264 
SE 1162 1191 1213 1184 1275 
SE 1156 1131 1212 1137 1128 
SE 1165 1288 1227 1258 1155 
SE 1293 1292 1114 1136 1221 
SE 1226 1281 1146 1181 1252 
SE 1263 1215 1253 1215 1196 
SE 1128 1285 1113 1106 1209 
SE 1102 1211 1193 1116 1159 
SE 1300 1239 1287 1228 1137 
SE 1265 1114 1285 1115 1241 
SE 1261 1129 1186 1236 1179 
SE 1131 1184 1128 1264 1125 
SE 1155 1220 1288 1127 1133 
SE 1266 1255 1174 1181 1291 
SE 1171 1161 1148 1195 1105 
SE 1153 1107 1136 1269 1106 
SE 1256 1142 1158 1295 1264 
SE 1289 1240 1132 1249 1151 
SE 1170 1110 1281 1219 1109 
SE 1111 1100 1139 1191 1297 
SE 1114 1217 1169 1164 1210 
SE 1156 1150 1236 1229 1187 
SE 1105 1111 1233 1210 1206 
SE 1206 1143 1113 1221 1110 
SE 1218 1143 1281 1222 1141 
SE 1150 1137 1172 1289 1279 
SE 1291 1170 1213 1195 1127 
SE 1256 1225 1252 1138 1197 
SE 1297 1243 1284 1268 1147 
SE 1271 1146 1119 1198 1221 
SE 1140 1235 1107 1159 1110 
SE 1109 1133 1146 1151 1272 
SE 1278 1127 1231 1185 1199 
SE 1155 1222 1184 1268 1165 
SE 1101 1124 1160 1138 1142 
SE 1203 1108 1227 1216 1150 
SE 1117 1136 1288 1182 1261 
SE 1281 1259 1124 1295 1201 
SE 1156 1219 1119 1232 1160 
SE 1268 1275 1274 1109 1299 
SE 1245 1273 1108 1109 1141 
SE 1116 1199 1206 1167 1189 
SE 1299 1158 1252 1224 1274 
SE 1250 1143 1246 1287 1124 
SE 1233 1103 1280 1199 1129 
SE 1169 1169 1300 1118 1279 
SE 1102 1150 1282 1205 1131 
SE 1188 1145 1137 1143 1244 
SE 1107 1108 1132 1217 1281 
SE 1122 1160 1212 1124 1291 
SE 1149 1296 1126 1234 1240 
SE 1272 1175 1201 1231 1190 
END

SECTION StochasticTerminals
ST 1 0 0 0 0 0 
ST 2 0 0 0 0 0 
ST 3 0 0 0 1 0 
ST 4 0 0 0 0 0 
ST 5 0 0 0 0 0 
ST 6 0 0 0 0 0 
ST 7 0 0 0 0 0 
ST 8 0 0 0 0 0 
ST 9 1 0 0 0 0 
ST 10 0 0 0 0 0 
ST 11 0 0 0 0 0 
ST 12 0 0 0 0 1 
ST 13 1 0 0 0 0 
ST 14 1 0 0 0 0 
ST 15 0 0 1 0 0 
ST 16 0 0 0 0 0 
ST 17 0 0 0 0 0 
ST 18 1 0 0 0 0 
ST 19 0 0 0 0 0 
ST 20 0 0 0 0 0 
ST 21 0 0 0 0 0 
ST 22 0 0 1 0 0 
ST 23 0 0 1 0 0 
ST 24 0 0 0 0 0 
ST 25 0 0 0 0 0 
ST 26 0 0 0 0 0 
ST 27 0 0 0 0 0 
ST 28 0 0 0 0 0 
ST 29 0 0 0 0 0 
ST 30 0 0 0 0 0 
ST 31 0 0 0 0 0 
ST 32 0 0 0 0 0 
ST 33 0 0 0 0 0 
ST 34 0 0 0 0 0 
ST 35 0 0 1 0 0 
ST 36 0 0 0 0 0 
ST 37 0 0 0 0 0 
ST 38 0 0 0 0 0 
ST 39 0 0 0 0 0 
ST 40 0 0 0 0 0 
ST 41 0 0 0 0 0 
ST 42 0 0 1 0 0 
ST 43 0 0 0 0 0 
ST 44 0 0 1 0 0 
ST 45 0 0 0 0 0 
ST 46 0 0 0 0 0 
ST 47 0 0 0 0 0 
ST 48 0 0 0 0 0 
ST 49 0 0 0 0 0 
ST 50 0 0 0 0 0 
ST 51 0 0 0 0 0 
ST 52 0 0 0 0 0 
ST 53 0 0 0 0 0 
ST 54 0 0 0 0 1 
ST 55 0 0 0 0 0 
ST 56 0 0 0 0 0 
ST 57 0 0 0 0 0 
ST 58 0 1 0 0 0 
ST 59 0 0 0 0 1 
ST 60 1 0 0 0 0 
ST 61 0 0 0 0 0 
ST 62 0 0 0 0 0 
ST 63 0 0 0 0 0 
ST 64 0 0 0 0 0 
ST 65 0 0 0 0 0 
ST 66 0 0 0 1 0 
ST 67 0 1 0 0 0 
ST 68 0 0 0 0 0 
ST 69 0 0 0 0 0 
ST 70 0 0 0 0 0 
ST 71 0 0 0 0 1 
ST 72 0 0 0 0 0 
ST 73 0 0 0 0 0 
ST 74 0 0 0 0 0 
ST 75 0 0 0 0 0 
ST 76 0 0 0 0 0 
ST 77 0 0 0 0 0 
ST 78 0 0 0 0 0 
ST 79 0 0 0 0 0 
ST 80 0 0 0 0 0 
ST 81 0 0 0 0 0 
ST 82 0 0 0 0 1 
ST 83 0 0 0 0 0 
ST 84 0 0 0 0 0 
ST 85 0 0 0 0 0 
ST 86 0 0 0 0 0 
ST 87 0 0 0 0 0 
ST 88 0 1 0 0 0 
ST 89 0 0 0 0 0 
ST 90 0 1 0 0 0 
ST 91 0 0 0 1 0 
ST 92 0 0 0 0 1 
ST 93 0 0 0 0 0 
ST 94 0 0 0 0 0 
ST 95 0 0 0 0 1 
ST 96 0 0 0 0 0 
ST 97 0 0 0 0 1 
ST 98 0 0 0 0 0 
ST 99 0 0 0 1 0 
ST 100 0 0 0 0 0 
ST 101 0 0 0 0 0 
ST 102 0 0 0 0 0 
ST 103 0 0 0 0 0 
ST 104 0 0 0 0 0 
ST 105 0 0 0 0 0 
ST 106 0 0 0 0 0 
ST 107 0 0 0 0 0 
ST 108 0 0 0 0 0 
ST 109 0 0 0 0 0 
ST 110 0 0 0 0 0 
ST 111 0 0 0 0 0 
ST 112 0 0 0 0 0 
ST 113 0 0 1 0 0 
ST 114 0 0 0 0 0 
ST 115 0 0 0 0 0 
ST 116 0 0 0 0 1 
ST 117 0 0 0 0 0 
ST 118 0 0 0 0 0 
ST 119 0 0 0 0 0 
ST 120 0 0 0 0 0 
ST 121 0 0 0 0 0 
ST 122 1 0 0 0 0 
ST 123 0 0 0 0 0 
ST 124 0 0 0 0 0 
ST 125 0 0 0 0 0 
ST 126 0 0 0 0 0 
ST 127 0 0 0 0 0 
ST 128 0 0 0 0 0 
ST 129 0 0 1 0 0 
ST 130 0 1 0 1 0 
ST 131 0 0 0 0 0 
ST 132 0 0 0 0 0 
ST 133 0 0 0 0 0 
ST 134 0 0 0 0 0 
ST 135 0 0 0 0 0 
ST 136 0 0 0 0 0 
ST 137 0 0 0 0 0 
ST 138 1 0 0 0 0 
ST 139 0 0 0 0 0 
ST 140 0 0 0 0 0 
ST 141 0 0 0 0 0 
ST 142 0 0 0 0 0 
ST 143 0 0 0 0 0 
ST 144 0 0 0 0 0 
ST 145 0 0 1 0 0 
ST 146 0 1 0 0 0 
ST 147 0 0 0 0 0 
ST 148 0 0 0 0 0 
ST 149 1 0 0 0 0 
ST 150 0 0 0 0 0 
ST 151 0 0 0 0 0 
ST 152 0 0 0 0 0 
ST 153 0 0 0 0 0 
ST 154 0 1 0 0 0 
ST 155 0 0 0 0 0 
ST 156 0 0 0 0 0 
ST 157 0 0 0 0 0 
ST 158 0 0 0 0 0 
ST 159 0 0 0 0 0 
ST 160 0 0 0 0 1 
ST 161 0 0 0 0 0 
ST 162 0 0 0 0 0 
ST 163 0 0 0 1 0 
ST 164 0 0 0 0 0 
ST 165 0 0 0 0 1 
ST 166 0 0 0 0 0 
ST 167 0 0 0 0 0 
ST 168 0 0 0 0 0 
ST 169 0 0 0 0 0 
ST 170 0 0 0 0 1 
ST 171 1 0 1 1 0 
ST 172 0 0 1 1 1 
ST 173 0 0 0 0 0 
ST 174 1 0 1 0 1 
ST 175 0 1 0 0 0 
ST 176 0 0 0 0 0 
ST 177 1 0 0 0 0 
ST 178 0 1 1 0 0 
ST 179 1 1 0 0 0 
ST 180 0 1 0 0 0 
ST 181 0 1 0 0 0 
ST 182 0 0 0 1 1 
ST 183 0 0 0 0 0 
ST 184 1 1 1 1 1 
ST 185 0 0 0 1 0 
ST 186 0 0 1 1 0 
ST 187 0 0 0 0 0 
ST 188 0 0 0 0 0 
ST 189 0 0 0 0 0 
END


SECTION Coordinates
DD 1 15657 14431
DD 2 15657 14433
DD 3 15666 14430
DD 4 15666 14434
DD 5 15641 14395
DD 6 15656 14395
DD 7 15647 14394
DD 8 15647 14398
DD 9 15642 14366
DD 10 15654 14365
DD 11 15606 14366
DD 12 15618 14365
DD 13 15587 14373
DD 14 15600 14373
DD 15 15588 14372
DD 16 15600 14372
DD 17 15588 14371
DD 18 15600 14371
DD 19 15570 14366
DD 20 15582 14365
DD 21 15567 14420
DD 22 15584 14420
DD 23 15567 14410
DD 24 15584 14410
DD 25 15567 14409
DD 26 15584 14409
DD 27 15549 14387
DD 28 15564 14387
DD 29 15558 14386
DD 30 15558 14387
DD 31 15549 14420
DD 32 15566 14420
DD 33 15513 14384
DD 34 15513 14386
DD 35 15528 14384
DD 36 15528 14386
DD 37 15522 14383
DD 38 15522 14387
DD 39 15512 14384
DD 40 15512 14386
DD 41 15503 14383
DD 42 15503 14387
DD 43 15477 14431
DD 44 15477 14433
DD 45 15492 14431
DD 46 15492 14433
DD 47 15486 14430
DD 48 15486 14434
DD 49 15461 14431
DD 50 15461 14433
DD 51 15476 14431
DD 52 15476 14433
DD 53 15467 14430
DD 54 15467 14434
DD 55 15456 14431
DD 56 15456 14433
DD 57 15450 14430
DD 58 15450 14434
DD 59 15696 14459
DD 60 15570 14420
DD 61 15582 14420
DD 62 15570 14410
DD 63 15582 14410
DD 64 15570 14409
DD 65 15582 14409
DD 66 15558 14420
DD 67 15564 14420
DD 68 15450 14431
DD 69 15450 14433
DD 70 15456 14430
DD 71 15503 14384
DD 72 15503 14386
DD 73 15456 14434
DD 74 15461 14430
DD 75 15461 14434
DD 76 15512 14383
DD 77 15513 14383
DD 78 15467 14431
DD 79 15512 14387
DD 80 15467 14433
DD 81 15513 14387
DD 82 15476 14430
DD 83 15522 14384
DD 84 15477 14430
DD 85 15522 14386
DD 86 15476 14434
DD 87 15477 14434
DD 88 15528 14387
DD 89 15486 14431
DD 90 15486 14433
DD 91 15492 14430
DD 92 15503 14420
DD 93 15512 14420
DD 94 15549 14383
DD 95 15513 14420
DD 96 15549 14384
DD 97 15549 14386
DD 98 15558 14383
DD 99 15570 14371
DD 100 15522 14420
DD 101 15558 14384
DD 102 15570 14372
DD 103 15570 14373
DD 104 15564 14383
DD 105 15528 14420
DD 106 15564 14384
DD 107 15582 14366
DD 108 15584 14365
DD 109 15564 14386
DD 110 15584 14366
DD 111 15566 14386
DD 112 15587 14365
DD 113 15566 14387
DD 114 15567 14386
DD 115 15582 14371
DD 116 15587 14366
DD 117 15588 14365
DD 118 15567 14387
DD 119 15582 14372
DD 120 15588 14366
DD 121 15582 14373
DD 122 15584 14371
DD 123 15570 14386
DD 124 15584 14372
DD 125 15570 14387
DD 126 15584 14373
DD 127 15549 14409
DD 128 15587 14371
DD 129 15549 14410
DD 130 15587 14372
DD 131 15588 14373
DD 132 15600 14365
DD 133 15600 14366
DD 134 15558 14409
DD 135 15558 14410
DD 136 15582 14386
DD 137 15582 14387
DD 138 15584 14386
DD 139 15584 14387
DD 140 15564 14409
DD 141 15564 14410
DD 142 15566 14409
DD 143 15566 14410
DD 144 15582 14394
DD 145 15582 14395
DD 146 15584 14394
DD 147 15584 14395
DD 148 15618 14366
DD 149 15600 14394
DD 150 15600 14395
DD 151 15600 14398
DD 152 15641 14365
DD 153 15641 14366
DD 154 15642 14365
DD 155 15647 14365
DD 156 15647 14366
DD 157 15647 14372
DD 158 15647 14373
DD 159 15654 14366
DD 160 15641 14394
DD 161 15642 14394
DD 162 15642 14395
DD 163 15647 14395
DD 164 15654 14394
DD 165 15654 14395
DD 166 15654 14398
DD 167 15656 14398
DD 168 15657 14430
DD 169 15666 14431
DD 170 15666 14433
DD 171 15657 14431
DD 172 15657 14433
DD 173 15666 14430
DD 174 15666 14434
DD 175 15641 14395
DD 176 15656 14395
DD 177 15647 14394
DD 178 15647 14398
DD 179 15642 14366
DD 180 15654 14365
DD 181 15606 14366
DD 182 15618 14365
DD 183 15587 14373
DD 184 15600 14373
DD 185 15588 14372
DD 186 15600 14372
DD 187 15588 14371
DD 188 15600 14371
DD 189 15570 14366
END

EOF
